NAME: random-43-10996
TYPE: TSP
COMMENT: size=43 seed=10996
DIMENSION: 88
EDGE_WEIGHT_TYPE: EUC_2D
NODE_COORD_SECTION
+0 772 442
-0 772 442
+1 154 583
-1 325 280
+2 865 945
-2 488 323
+3 393 972
-3 263 860
+4 479 736
-4 888 654
+5 58 827
-5 192 915
+6 72 550
-6 487 958
+7 358 290
-7 789 189
+8 357 845
-8 589 445
+9 552 305
-9 325 717
+10 880 124
-10 366 555
+11 952 67
-11 673 620
+12 518 266
-12 80 697
+13 910 990
-13 678 30
+14 701 326
-14 821 133
+15 403 427
-15 785 228
+16 493 731
-16 970 309
+17 701 198
-17 73 148
+18 698 892
-18 765 515
+19 239 6
-19 969 881
+20 546 58
-20 906 206
+21 23 686
-21 115 912
+22 666 618
-22 340 412
+23 207 451
-23 139 342
+24 579 961
-24 481 575
+25 520 597
-25 290 568
+26 22 173
-26 811 551
+27 52 177
-27 829 560
+28 614 582
-28 570 235
+29 300 71
-29 2 554
+30 960 479
-30 920 883
+31 555 293
-31 37 94
+32 93 475
-32 41 550
+33 181 268
-33 358 555
+34 955 718
-34 284 237
+35 904 941
-35 643 809
+36 172 222
-36 767 767
+37 176 939
-37 118 112
+38 525 912
-38 214 515
+39 573 793
-39 135 486
+40 433 990
-40 588 522
+41 184 266
-41 337 657
+42 90 247
-42 122 938
+43 137 447
-43 317 641
PRECEDENCE_SECTION
+0 -0
+1 -1
+2 -2
+3 -3
+4 -4
+5 -5
+6 -6
+7 -7
+8 -8
+9 -9
+10 -10
+11 -11
+12 -12
+13 -13
+14 -14
+15 -15
+16 -16
+17 -17
+18 -18
+19 -19
+20 -20
+21 -21
+22 -22
+23 -23
+24 -24
+25 -25
+26 -26
+27 -27
+28 -28
+29 -29
+30 -30
+31 -31
+32 -32
+33 -33
+34 -34
+35 -35
+36 -36
+37 -37
+38 -38
+39 -39
+40 -40
+41 -41
+42 -42
+43 -43
EOF
